Traveling Salesman Problem/TSP_generados/Aleatorio1620394162_17.tsp
NAME: Aleatorio1620394162_17.tsp
COMMENT: Randomly generated scenario
TYPE: TSP
DIMENSION: 17
EDGE_WEIGHT_TYPE: ATT
NODE_COORD_SECTION
1 36.04 19.02
2 1.51 0.35
3 30.45 18.5
4 34.19 4.16
5 21.13 2.26
6 46.59 36.79
7 20.74 29.19
8 9.71 12.53
9 38.09 1.34
10 25.29 24.36
11 10.75 40.8
12 22.08 3.31
13 41.17 43.33
14 42.69 9.5
15 8.37 34.14
16 21.67 6.71
17 10.93 4.21
