Traveling Salesman Problem/TSP_generados/Aleatorio1620394162_17.opt.tour
NAME: Aleatorio1620394162_17.opt.tour
COMMENT: Optimal solution for Aleatorio1620394162_17 (192.05042573654237)
TYPE: TOUR
DIMENSION: 17
TOUR_SECTION
1 13 6 14 9 4 16 12 5 17 2 8 15 11 7 10 3
-1
EOF
